Minimize
  10.25 MN + 10.25 MB - [ 0.85 MB * IMB ] + 10 MG + 
12.75 LN + 13.25 LB + 13.25 LG + 
9.9 PN + 10 PB + 9.625 PG - [ 0.325 PG * IPG ] 
Subject to
  NewYorkDemand:   1 MN + 1 LN + 1 PN >= 6400
  BanagloreDemand: 1 MB + 1 LB + 1 PB >= 3200
  GautengDemand:   1 MG + 1 LG + 1 PG >= 266614
  IndicatorMB:     1 MB - 9999 IMB >= -8999
  IndicatorPG:     1 PG - 9999 IPG >= -8999
 Bounds: 
  MN >= 0
  MB >= 0
  MG >= 0
  LN >= 0
  LB >= 0
  LG >= 0
  PN >= 0
  PB >= 0
  PG >= 0
Binaries
  IMB IPG 
End